(set-option :produce-models true); benchmark generated from python API
(set-info :status unknown)
(declare-fun l_1_0_7 () Real)
(declare-fun l_1_0_6 () Real)
(declare-fun l_1_0_3 () Real)
(declare-fun l_1_0_9 () Real)
(declare-fun l_1_0_10 () Real)
(declare-fun _a_0_ () Real)
(declare-fun l_1_0_4 () Real)
(declare-fun _a_1_ () Real)
(declare-fun l_1_0_8 () Real)
(declare-fun l_1_0_5 () Real)
(declare-fun l_1_0_2 () Real)
(declare-fun l_1_0_11 () Real)
(declare-fun l_1_0_1 () Real)
(declare-fun l_1_1_9 () Real)
(declare-fun l_1_1_8 () Real)
(declare-fun l_1_1_7 () Real)
(declare-fun l_1_1_6 () Real)
(declare-fun l_1_1_5 () Real)
(declare-fun l_1_1_4 () Real)
(declare-fun l_1_1_3 () Real)
(declare-fun l_1_1_2 () Real)
(declare-fun l_1_1_17 () Real)
(declare-fun l_1_1_16 () Real)
(declare-fun l_1_1_14 () Real)
(declare-fun l_1_1_13 () Real)
(declare-fun l_1_1_12 () Real)
(declare-fun l_1_1_11 () Real)
(declare-fun l_1_1_10 () Real)
(declare-fun l_1_1_1 () Real)
(declare-fun l_1_1_15 () Real)
(declare-fun l_1_2_9 () Real)
(declare-fun l_1_2_6 () Real)
(declare-fun l_1_2_4 () Real)
(declare-fun l_1_2_3 () Real)
(declare-fun l_1_2_16 () Real)
(declare-fun l_1_2_15 () Real)
(declare-fun l_1_2_12 () Real)
(declare-fun l_1_2_10 () Real)
(declare-fun l_1_2_8 () Real)
(declare-fun l_1_2_5 () Real)
(declare-fun l_1_2_2 () Real)
(declare-fun l_1_2_11 () Real)
(declare-fun l_1_2_7 () Real)
(declare-fun l_1_2_17 () Real)
(declare-fun l_1_2_14 () Real)
(declare-fun l_1_2_13 () Real)
(declare-fun l_1_2_1 () Real)
(assert
 (let ((?x27 (- (- _a_0_ (* (* 2.0 l_1_0_10) l_1_0_9)) (* 1.0 l_1_0_3))))
 (= (- (- ?x27 (* 1.0 l_1_0_6)) (* 1.0 l_1_0_7)) 0.0)))
(assert
 (let ((?x438 (* l_1_0_9 l_1_0_9)))
 (let ((?x437 (+ (+ (- (+ _a_1_ l_1_0_3) (* 1.0 l_1_0_4)) l_1_0_6) l_1_0_7)))
 (= (- ?x437 ?x438) 0.0))))
(assert
 (let ((?x311 (* l_1_0_11 l_1_0_11)))
 (let ((?x307 (- (- (- (- (- l_1_0_1) (* l_1_0_10 l_1_0_10)) ?x311) l_1_0_2) l_1_0_5)))
 (= (+ (- ?x307 l_1_0_8) 1.0) 0.0))))
(assert
 (= (* 2.0 l_1_0_4) 0.0))
(assert
 (= (- l_1_0_4) 0.0))
(assert
 (>= l_1_0_1 0.0))
(assert
 (>= l_1_0_2 0.0))
(assert
 (>= l_1_0_3 0.0))
(assert
 (>= l_1_0_4 0.0))
(assert
 (>= l_1_0_5 0.0))
(assert
 (>= l_1_0_6 0.0))
(assert
 (>= l_1_0_7 0.0))
(assert
 (>= l_1_0_8 0.0))
(assert
 (>= l_1_0_9 0.0))
(assert
 (>= l_1_0_11 0.0))
(assert
 (let ((?x14 (* (/ 2601.0 10000.0) l_1_1_8)))
 (let ((?x291 (* (/ 51.0 100.0) l_1_1_6)))
 (let ((?x290 (* (/ 51.0 100.0) l_1_1_5)))
 (let ((?x301 (* (/ 51.0 100.0) l_1_1_4)))
 (let ((?x302 (* (/ 51.0 100.0) l_1_1_3)))
 (let ((?x16 (* l_1_1_17 l_1_1_17)))
 (let ((?x18 (* l_1_1_16 l_1_1_16)))
 (let ((?x306 (* (/ 51.0 100.0) l_1_1_13)))
 (let ((?x329 (- (- (- (- l_1_1_1) (* 1.0 l_1_1_10)) (* 1.0 l_1_1_11)) l_1_1_12)))
 (let ((?x13 (+ (- (- (- (- (+ ?x329 ?x306) l_1_1_14) ?x18) ?x16) l_1_1_2) ?x302)))
 (let ((?x267 (- (- (- (+ (+ (+ ?x13 ?x301) ?x290) ?x291) (* 1.0 l_1_1_7)) ?x14) (* 1.0 l_1_1_9))))
 (= (+ ?x267 (/ 3.0 2.0)) 0.0)))))))))))))
(assert
 (let ((?x115 (* (/ 47.0 50.0) l_1_1_8)))
 (let ((?x131 (* l_1_1_15 l_1_1_15)))
 (let ((?x126 (* _a_1_ l_1_1_9)))
 (let ((?x128 (- (- (- (* (- _a_1_) l_1_1_10) (* _a_1_ l_1_1_11)) ?x126) l_1_1_13)))
 (let ((?x140 (- (- ?x128 ?x131) (* l_1_1_3 (+ (- (* (- (/ 7.0 5.0)) _a_0_) (* (/ 51.0 100.0) _a_1_)) 1.0)))))
 (let ((?x142 (- ?x140 (* l_1_1_4 (+ (- (* (- (/ 7.0 5.0)) _a_0_) (* (/ 51.0 100.0) _a_1_)) 1.0)))))
 (let ((?x7 (- (- (- ?x142 l_1_1_5) l_1_1_6) (* l_1_1_7 (+ (* _a_0_ _a_0_) (* 2.0 _a_1_))))))
 (= (- (- ?x7 ?x115) 1.0) 0.0)))))))))
(assert
 (let ((?x355 (* (/ 357.0 250.0) l_1_1_8)))
 (let ((?x359 (* (/ 7.0 5.0) l_1_1_6)))
 (let ((?x409 (* (/ 7.0 5.0) l_1_1_5)))
 (let ((?x428 (* (/ 7.0 5.0) l_1_1_13)))
 (let ((?x215 (* _a_0_ l_1_1_9)))
 (let ((?x464 (- (- (* (- _a_0_) l_1_1_10) (* _a_0_ l_1_1_11)) (* (* 2.0 _a_0_) l_1_1_7))))
 (let ((?x511 (- (- (+ (- ?x464 ?x215) ?x428) (* (* 2.0 l_1_1_15) l_1_1_16)) (* l_1_1_3 (- (* (- (/ 51.0 100.0)) _a_0_) (/ 7.0 5.0))))))
 (let ((?x352 (+ (+ (- ?x511 (* l_1_1_4 (- (* (- (/ 51.0 100.0)) _a_0_) (/ 7.0 5.0)))) ?x409) ?x359)))
 (= (+ (- ?x352 ?x355) (/ 1.0 2.0)) 0.0))))))))))
(assert
 (let ((?x246 (- (* (* (* (- 2.0) _a_0_) _a_1_) l_1_1_7) (* l_1_1_3 (- _a_0_ (* (/ 7.0 5.0) _a_1_))))))
 (let ((?x89 (+ (- ?x246 (* l_1_1_4 (- _a_0_ (* (/ 7.0 5.0) _a_1_)))) (* (/ 14.0 5.0) l_1_1_8))))
 (= ?x89 0.0))))
(assert
 (let ((?x61 (- (- (* (- _a_1_) l_1_1_3) (* _a_1_ l_1_1_4)) (* (* l_1_1_7 _a_1_) _a_1_))))
 (= (- ?x61 l_1_1_8) 0.0)))
(assert
 (>= l_1_1_1 0.0))
(assert
 (>= l_1_1_2 0.0))
(assert
 (>= l_1_1_3 0.0))
(assert
 (>= l_1_1_4 0.0))
(assert
 (>= l_1_1_5 0.0))
(assert
 (>= l_1_1_6 0.0))
(assert
 (>= l_1_1_7 0.0))
(assert
 (>= l_1_1_8 0.0))
(assert
 (>= l_1_1_9 0.0))
(assert
 (>= l_1_1_10 0.0))
(assert
 (>= l_1_1_11 0.0))
(assert
 (>= l_1_1_12 0.0))
(assert
 (>= l_1_1_13 0.0))
(assert
 (>= l_1_1_14 0.0))
(assert
 (>= l_1_1_15 0.0))
(assert
 (>= l_1_1_17 0.0))
(assert
 (let ((?x565 (* (/ 7.0 5.0) l_1_2_9)))
 (let ((?x557 (* (/ 7.0 5.0) l_1_2_3)))
 (let ((?x552 (* (/ 7.0 5.0) l_1_2_12)))
 (let ((?x550 (* (/ 357.0 250.0) l_1_2_10)))
 (let ((?x548 (* (/ 8.0 5.0) _a_0_)))
 (let ((?x545 (* _a_0_ l_1_2_8)))
 (let ((?x544 (- (- (* (- _a_0_) l_1_2_11) (* _a_0_ l_1_2_2)) (* (* 2.0 _a_0_) l_1_2_5))))
 (let ((?x556 (- (- (- (- (- ?x544 ?x545) ?x548) ?x550) ?x552) (* (* 2.0 l_1_2_15) l_1_2_16))))
 (let ((?x564 (- (- (- ?x556 ?x557) (* l_1_2_4 (+ (* (/ 51.0 100.0) _a_0_) (/ 7.0 5.0)))) (* l_1_2_6 (+ (* (/ 51.0 100.0) _a_0_) (/ 7.0 5.0))))))
 (= (- ?x564 ?x565) 0.0)))))))))))
(assert
 (let ((?x660 (* l_1_2_15 l_1_2_15)))
 (let ((?x657 (* (/ 47.0 50.0) l_1_2_10)))
 (let ((?x655 (* (/ 64.0 25.0) _a_1_)))
 (let ((?x652 (* _a_1_ l_1_2_8)))
 (let ((?x650 (* _a_1_ l_1_2_2)))
 (let ((?x656 (+ (- (- (- (* (/ 8.0 5.0) _a_0_) (* _a_1_ l_1_2_11)) ?x650) ?x652) ?x655)))
 (let ((?x667 (- (+ (- (+ (- ?x656 ?x657) l_1_2_12) ?x660) l_1_2_3) (* l_1_2_4 (- (+ (* (/ 7.0 5.0) _a_0_) (* (/ 51.0 100.0) _a_1_)) 1.0)))))
 (let ((?x671 (- (- ?x667 (* l_1_2_5 (+ (* _a_0_ _a_0_) (* 2.0 _a_1_)))) (* l_1_2_6 (- (+ (* (/ 7.0 5.0) _a_0_) (* (/ 51.0 100.0) _a_1_)) 1.0)))))
 (= (+ ?x671 l_1_2_9) 0.0))))))))))
(assert
 (let ((?x762 (* (/ 14.0 5.0) l_1_2_10)))
 (let ((?x763 (+ (- (* (* (* (- 2.0) _a_0_) _a_1_) l_1_2_5) (* (/ 128.0 25.0) _a_1_)) ?x762)))
 (let ((?x768 (- (- ?x763 (* l_1_2_4 (+ (- _a_0_) (* (/ 7.0 5.0) _a_1_)))) (* l_1_2_6 (+ (- _a_0_) (* (/ 7.0 5.0) _a_1_))))))
 (= ?x768 0.0)))))
(assert
 (let ((?x655 (* (/ 64.0 25.0) _a_1_)))
 (let ((?x819 (- (+ (+ (* _a_1_ l_1_2_4) (* _a_1_ l_1_2_6)) ?x655) l_1_2_10)))
 (= (- ?x819 (* (* l_1_2_5 _a_1_) _a_1_)) 0.0))))
(assert
 (let ((?x858 (* (/ 51.0 100.0) l_1_2_9)))
 (let ((?x853 (* (/ 51.0 100.0) l_1_2_6)))
 (let ((?x849 (* (/ 51.0 100.0) l_1_2_4)))
 (let ((?x847 (* (/ 51.0 100.0) l_1_2_3)))
 (let ((?x843 (* l_1_2_17 l_1_2_17)))
 (let ((?x841 (* l_1_2_16 l_1_2_16)))
 (let ((?x837 (* (/ 51.0 100.0) l_1_2_12)))
 (let ((?x838 (- (- (- (- l_1_2_1) (* (/ 2601.0 10000.0) l_1_2_10)) (* 1.0 l_1_2_11)) ?x837)))
 (let ((?x846 (- (- (- (- (- ?x838 l_1_2_13) l_1_2_14) ?x841) ?x843) (* 1.0 l_1_2_2))))
 (let ((?x855 (- (- (- (- (- ?x846 ?x847) ?x849) (* 1.0 l_1_2_5)) ?x853) l_1_2_7)))
 (= (+ (- (- ?x855 (* 1.0 l_1_2_8)) ?x858) 1.0) 0.0))))))))))))
(assert
 (>= l_1_2_1 0.0))
(assert
 (>= l_1_2_2 0.0))
(assert
 (>= l_1_2_3 0.0))
(assert
 (>= l_1_2_4 0.0))
(assert
 (>= l_1_2_5 0.0))
(assert
 (>= l_1_2_6 0.0))
(assert
 (>= l_1_2_7 0.0))
(assert
 (>= l_1_2_8 0.0))
(assert
 (>= l_1_2_9 0.0))
(assert
 (>= l_1_2_10 0.0))
(assert
 (>= l_1_2_11 0.0))
(assert
 (>= l_1_2_12 0.0))
(assert
 (>= l_1_2_13 0.0))
(assert
 (>= l_1_2_14 0.0))
(assert
 (>= l_1_2_15 0.0))
(assert
 (>= l_1_2_17 0.0))
(check-sat)
(get-model)